ISTART = 0
ICHARG = 11
ISPIN  = 1
PREC   = Accurate
EDIFF  = 1E-6
ALGO   = Fast
ENCUT  = 250
ISMEAR = 0
LWAVE  = .FALSE.
LCHARG = .FALSE.
