k-points along high symmetry lines
 10
Line-mode
rec
0.0000000 0.0000000 0.0000000 ! Gamma
0.5000000 0.0000000 0.5000000 ! X

0.5000000 0.0000000 0.5000000 ! X
0.5000000 0.2500000 0.7500000 ! W

0.5000000 0.2500000 0.7500000 ! W
0.5000000 0.5000000 0.5000000 ! K

0.5000000 0.5000000 0.5000000 ! K
0.0000000 0.0000000 0.0000000 ! Gamma

0.0000000 0.0000000 0.0000000 ! Gamma
0.3750000 0.3750000 0.7500000 ! L

