FCC Cu - primitive cell
3.615
0.0 0.5 0.5
0.5 0.0 0.5
0.5 0.5 0.0
Cu
1
Direct
0.0 0.0 0.0
