Nb20 Si12  Nb5Si-alpha Cr5B3 I4/mcm tetragonal
1.0
6.5700000000 0.0000000000 0.0000000000
0.0000000000 6.5700000000 0.0000000000
0.0000000000 0.0000000000 11.8800000000
Nb Si
20 12
direct
0.1660000000 0.6660000000 0.8500000000 Nb
0.3340000000 0.1660000000 0.8500000000 Nb
0.8340000000 0.6660000000 0.6500000000 Nb
0.6660000000 0.8340000000 0.1500000000 Nb
0.1660000000 0.3340000000 0.3500000000 Nb
0.3340000000 0.1660000000 0.1500000000 Nb
0.8340000000 0.3340000000 0.1500000000 Nb
0.1660000000 0.6660000000 0.1500000000 Nb
0.6660000000 0.1660000000 0.3500000000 Nb
0.8340000000 0.6660000000 0.3500000000 Nb
0.3340000000 0.8340000000 0.3500000000 Nb
0.8340000000 0.3340000000 0.8500000000 Nb
0.6660000000 0.8340000000 0.8500000000 Nb
0.3340000000 0.8340000000 0.6500000000 Nb
0.1660000000 0.3340000000 0.6500000000 Nb
0.6660000000 0.1660000000 0.6500000000 Nb
0.0000000000 0.0000000000 0.0000000000 Nb
0.0000000000 0.0000000000 0.5000000000 Nb
0.5000000000 0.5000000000 0.0000000000 Nb
0.5000000000 0.5000000000 0.5000000000 Nb
0.6250000000 0.1250000000 0.0000000000 Si
0.8750000000 0.6250000000 0.0000000000 Si
0.3750000000 0.1250000000 0.5000000000 Si
0.1250000000 0.3750000000 0.0000000000 Si
0.6250000000 0.8750000000 0.5000000000 Si
0.3750000000 0.8750000000 0.0000000000 Si
0.1250000000 0.6250000000 0.5000000000 Si
0.8750000000 0.3750000000 0.5000000000 Si
0.0000000000 0.0000000000 0.7500000000 Si
0.0000000000 0.0000000000 0.2500000000 Si
0.5000000000 0.5000000000 0.2500000000 Si
0.5000000000 0.5000000000 0.7500000000 Si
